(set-logic QF_S)
(declare-fun var0 () String)
(declare-fun var1 () String)
(declare-fun var2 () String)
(declare-fun var3 () String)
(declare-fun var4 () String)
(declare-fun var5 () String)
(declare-fun var6 () String)
(declare-fun var7 () String)
(declare-fun var8 () String)
(declare-fun var9 () String)
(declare-fun var10 () String)
(declare-fun var11 () String)
(declare-fun var12 () String)
(declare-fun var13 () String)
(declare-fun var14 () String)
(declare-fun var15 () String)
(declare-fun var16 () String)
(declare-fun var17 () String)
(declare-fun var18 () String)
(declare-fun var19 () String)
(declare-fun var20 () String)
(declare-fun var21 () String)
(declare-fun var22 () String)
(declare-fun var23 () String)
(declare-fun var24 () String)
(declare-fun var25 () String)
(declare-fun var26 () String)
(declare-fun var27 () String)
(declare-fun var28 () String)
(declare-fun var29 () String)
(declare-fun var30 () String)
(declare-fun var31 () String)
(declare-fun var32 () String)
(declare-fun var33 () String)
(declare-fun var34 () String)
(declare-fun var35 () String)
(declare-fun var36 () String)
(declare-fun var37 () String)
(declare-fun var38 () String)
(declare-fun var39 () String)
(declare-fun var40 () String)
(declare-fun var41 () String)
(declare-fun var42 () String)
(declare-fun var43 () String)
(declare-fun var44 () String)
(declare-fun var45 () String)
(declare-fun var46 () String)
(declare-fun var47 () String)
(declare-fun var48 () String)
(declare-fun var49 () String)
(declare-fun var50 () String)
(declare-fun var51 () String)
(declare-fun var52 () String)
(declare-fun var53 () String)
(declare-fun var54 () String)
(declare-fun var55 () String)
(declare-fun var56 () String)
(declare-fun var57 () String)
(declare-fun var58 () String)
(declare-fun var59 () String)
(declare-fun var60 () String)
(assert (= var0 (str.++ var1 var2)))
(assert (= var2 (str.++ var3 var4)))
(assert (= var4 (str.++ var5 var6)))
(assert (= var6 (str.++ var7 var8)))
(assert (= var8 (str.++ var9 var10)))
(assert (= var10 (str.++ var11 var12)))
(assert (= var12 (str.++ var13 var14)))
(assert (= var14 (str.++ var15 var16)))
(assert (= var16 (str.++ var17 var18)))
(assert (= var18 (str.++ var19 var20)))
(assert (= var20 (str.++ var21 var22)))
(assert (= var22 (str.++ var23 var24)))
(assert (= var24 (str.++ var25 var26)))
(assert (= var26 (str.++ var27 var28)))
(assert (= var28 (str.++ var29 var30)))
(assert (= var30 (str.++ var31 var32)))
(assert (= var32 (str.++ var33 var34)))
(assert (= var34 (str.++ var35 var36)))
(assert (= var36 (str.++ var37 var38)))
(assert (= var38 (str.++ var39 var40)))
(assert (= var40 (str.++ var41 var42)))
(assert (= var42 (str.++ var43 var44)))
(assert (= var44 (str.++ var45 var46)))
(assert (= var46 (str.++ var47 var48)))
(assert (= var48 (str.++ var49 var50)))
(assert (= var50 (str.++ var51 var52)))
(assert (= var52 (str.++ var53 var54)))
(assert (= var54 (str.++ var55 var56)))
(assert (= var56 (str.++ var57 var58)))
(assert (= var58 (str.++ var59 var60)))
(assert (= var0 "solution"))
(assert (= "c" (str.at var18 84)))
(assert (= "U" (str.at var26 289)))
(assert (= "n" (str.at var52 854)))
(assert (= "V" (str.at var15 600)))
(assert (= "+" (str.at var56 702)))
(assert (= "m" (str.at var7 344)))
(assert (= "B" (str.at var37 500)))
(assert (= "H" (str.at var47 793)))
(assert (= "N" (str.at var38 72)))
(assert (= "}" (str.at var34 429)))
(assert (= "h" (str.at var0 828)))
(assert (= "t" (str.at var32 62)))
(assert (= "5" (str.at var7 63)))
(assert (= "q" (str.at var26 887)))
(assert (= "f" (str.at var47 861)))
(assert (= "c" (str.at var30 934)))
(assert (= "9" (str.at var36 883)))
(assert (= "}" (str.at var1 768)))
(assert (= "l" (str.at var44 919)))
(assert (= "X" (str.at var48 0)))
(assert (= "s" (str.at var50 186)))
(assert (= "/" (str.at var0 557)))
(assert (= "A" (str.at var0 237)))
(assert (= "3" (str.at var47 639)))
(assert (= "-" (str.at var16 168)))
(assert (= "2" (str.at var56 547)))
(assert (= "'" (str.at var18 359)))
(assert (= "S" (str.at var30 796)))
(assert (= "p" (str.at var49 58)))
(assert (= "~" (str.at var38 745)))
(assert (= "e" (str.at var48 505)))
(assert (= "L" (str.at var42 764)))
(assert (= "j" (str.at var58 879)))
(assert (= "\\" (str.at var14 199)))
(assert (= "n" (str.at var25 535)))
(assert (= "[" (str.at var7 433)))
(assert (= "V" (str.at var39 598)))
(assert (= "~" (str.at var35 632)))
(assert (= "(" (str.at var7 961)))
(assert (= "N" (str.at var48 708)))
(assert (= "," (str.at var38 46)))
(assert (= "R" (str.at var14 43)))
(assert (= "H" (str.at var49 272)))
(assert (= "Y" (str.at var15 16)))
(assert (= "k" (str.at var29 442)))
(assert (= "B" (str.at var60 899)))
(assert (= "C" (str.at var32 122)))
(assert (= "]" (str.at var28 783)))
(assert (= "Z" (str.at var14 774)))
(assert (= "j" (str.at var34 791)))
(assert (= "Y" (str.at var30 585)))
(assert (= "!" (str.at var55 437)))
(assert (= "-" (str.at var45 88)))
(assert (= "T" (str.at var58 583)))
(assert (= "," (str.at var1 618)))
(assert (= "D" (str.at var52 197)))
(assert (= "/" (str.at var54 118)))
(assert (= "J" (str.at var29 650)))
(assert (= "z" (str.at var0 543)))
(assert (= "p" (str.at var7 517)))
(assert (= "#" (str.at var50 302)))
(assert (= "O" (str.at var23 514)))
(assert (= "G" (str.at var4 633)))
(assert (= "S" (str.at var51 38)))
(assert (= "5" (str.at var10 758)))
(assert (= "l" (str.at var24 889)))
(assert (= "H" (str.at var23 868)))
(assert (= "z" (str.at var16 653)))
(assert (= "^" (str.at var11 940)))
(assert (= "L" (str.at var6 862)))
(assert (= "{" (str.at var51 91)))
(assert (= "K" (str.at var22 911)))
(assert (= "8" (str.at var45 992)))
(assert (= "E" (str.at var54 817)))
(assert (= ")" (str.at var27 554)))
(assert (= "+" (str.at var23 292)))
(assert (= "a" (str.at var51 416)))
(assert (= "8" (str.at var0 172)))
(assert (= ":" (str.at var41 187)))
(assert (= "`" (str.at var35 295)))
(assert (= "|" (str.at var35 476)))
(assert (= "8" (str.at var33 665)))
(assert (= "a" (str.at var39 428)))
(assert (= "i" (str.at var57 688)))
(assert (= "-" (str.at var50 81)))
(assert (= "q" (str.at var34 3)))
(assert (= "L" (str.at var9 735)))
(assert (= "V" (str.at var56 567)))
(assert (= "O" (str.at var48 504)))
(assert (= "n" (str.at var27 720)))
(assert (= "b" (str.at var45 828)))
(assert (= "P" (str.at var58 771)))
(assert (= "A" (str.at var3 203)))
(assert (= "9" (str.at var50 929)))
(assert (= "R" (str.at var24 937)))
(assert (= ">" (str.at var2 430)))
(assert (= "'" (str.at var36 105)))
(assert (= "k" (str.at var20 835)))
(assert (= "#" (str.at var16 684)))
(assert (= "C" (str.at var11 577)))
(assert (= "o" (str.at var6 278)))
(assert (= "D" (str.at var29 551)))
(assert (= "@" (str.at var55 51)))
(assert (= "G" (str.at var24 208)))
(assert (= "$" (str.at var19 648)))
(assert (= "@" (str.at var52 145)))
(assert (= "A" (str.at var11 85)))
(assert (= "#" (str.at var12 912)))
(assert (= "U" (str.at var15 343)))
(assert (= "-" (str.at var15 622)))
(assert (= "}" (str.at var59 512)))
(assert (= "H" (str.at var60 832)))
(assert (= "0" (str.at var23 746)))
(assert (= "M" (str.at var51 229)))
(assert (= ":" (str.at var29 467)))
(assert (= "7" (str.at var17 775)))
(assert (= "~" (str.at var16 587)))
(assert (= "0" (str.at var3 625)))
(assert (= "C" (str.at var30 849)))
(assert (= "M" (str.at var22 724)))
(assert (= "j" (str.at var44 829)))
(assert (= "@" (str.at var38 596)))
(assert (= "^" (str.at var33 924)))
(assert (= "W" (str.at var42 14)))
(assert (= "Y" (str.at var54 915)))
(assert (= "R" (str.at var37 121)))
(assert (= "#" (str.at var40 498)))
(assert (= "k" (str.at var41 536)))
(assert (= "`" (str.at var46 481)))
(assert (= "5" (str.at var28 952)))
(assert (= "A" (str.at var14 24)))
(assert (= "." (str.at var45 305)))
(assert (= "v" (str.at var44 589)))
(assert (= "o" (str.at var48 88)))
(assert (= "0" (str.at var57 646)))
(assert (= "s" (str.at var9 604)))
(assert (= "=" (str.at var2 66)))
(assert (= "u" (str.at var3 987)))
(assert (= "A" (str.at var59 510)))
(assert (= "A" (str.at var59 695)))
(assert (= "~" (str.at var35 885)))
(assert (= "/" (str.at var5 823)))
(assert (= "R" (str.at var1 12)))
(assert (= "L" (str.at var54 843)))
(assert (= "M" (str.at var11 223)))
(assert (= "V" (str.at var11 656)))
(assert (= ")" (str.at var53 108)))
(assert (= "]" (str.at var40 307)))
(assert (= "]" (str.at var33 322)))
(assert (= "j" (str.at var13 623)))
(assert (= "8" (str.at var47 456)))
(assert (= "B" (str.at var22 475)))
(assert (= "R" (str.at var39 558)))
(assert (= "-" (str.at var31 548)))
(assert (= "e" (str.at var8 660)))
(assert (= "t" (str.at var5 147)))
(assert (= "^" (str.at var2 162)))
(assert (= "w" (str.at var7 916)))
(assert (= "s" (str.at var56 447)))
(assert (= "O" (str.at var31 18)))
(assert (= "G" (str.at var58 614)))
(assert (= "v" (str.at var16 550)))
(assert (= "o" (str.at var31 906)))
(assert (= "y" (str.at var17 642)))
(assert (= "6" (str.at var25 681)))
(assert (= "Q" (str.at var13 573)))
(assert (= "6" (str.at var16 391)))
(assert (= "]" (str.at var55 1)))
(assert (= "l" (str.at var13 595)))
(assert (= "'" (str.at var58 901)))
(assert (= "\\" (str.at var12 607)))
(assert (= "+" (str.at var50 922)))
(assert (= "`" (str.at var41 114)))
(assert (= "2" (str.at var31 969)))
(assert (= "O" (str.at var15 748)))
(assert (= "V" (str.at var59 947)))
(assert (= "&" (str.at var18 15)))
(assert (= "U" (str.at var31 655)))
(assert (= "3" (str.at var59 116)))
(assert (= "g" (str.at var34 608)))
(assert (= "u" (str.at var44 264)))
(assert (= "Z" (str.at var36 285)))
(assert (= "0" (str.at var8 563)))
(assert (= "0" (str.at var9 806)))
(assert (= "2" (str.at var35 629)))
(assert (= "?" (str.at var40 942)))
(assert (= "S" (str.at var16 281)))
(assert (= "Q" (str.at var30 212)))
(assert (= "R" (str.at var8 307)))
(assert (= "z" (str.at var34 782)))
(assert (= "s" (str.at var4 543)))
(assert (= "," (str.at var7 76)))
(assert (= "P" (str.at var45 782)))
(assert (= "k" (str.at var42 275)))
(assert (= "y" (str.at var56 304)))
(assert (= "8" (str.at var29 525)))
(assert (= "}" (str.at var10 573)))
(assert (= "@" (str.at var12 853)))
(assert (= "}" (str.at var20 108)))
(assert (= "L" (str.at var1 606)))
(assert (= "4" (str.at var22 783)))
(assert (= "d" (str.at var31 730)))
(assert (= "D" (str.at var1 830)))
(assert (= "@" (str.at var38 876)))
(assert (= "x" (str.at var49 886)))
(assert (= "2" (str.at var29 71)))
(assert (= "$" (str.at var15 740)))
(assert (= "3" (str.at var34 284)))
(assert (= "%" (str.at var48 606)))
(assert (= "{" (str.at var6 539)))
(assert (= "J" (str.at var42 552)))
(assert (= "9" (str.at var38 965)))
(assert (= "\\" (str.at var21 99)))
(assert (= "i" (str.at var48 494)))
(assert (= ">" (str.at var1 654)))
(assert (= ":" (str.at var42 707)))
(assert (= "5" (str.at var9 217)))
(assert (= "L" (str.at var18 207)))
(assert (= "T" (str.at var14 270)))
(assert (= "I" (str.at var33 880)))
(assert (= "Y" (str.at var27 849)))
(assert (= "T" (str.at var25 487)))
(assert (= "&" (str.at var46 828)))
(assert (= "}" (str.at var54 689)))
(assert (= "Q" (str.at var25 290)))
(assert (= "(" (str.at var39 981)))
(assert (= "k" (str.at var11 694)))
(assert (= "{" (str.at var2 96)))
(assert (= "h" (str.at var33 131)))
(assert (= "y" (str.at var2 146)))
(assert (= "|" (str.at var16 415)))
(assert (= ";" (str.at var35 742)))
(assert (= "`" (str.at var38 887)))
(assert (= "t" (str.at var42 754)))
(assert (= "y" (str.at var37 518)))
(assert (= "O" (str.at var17 676)))
(assert (= "T" (str.at var4 833)))
(assert (= "b" (str.at var51 305)))
(assert (= "O" (str.at var3 698)))
(assert (= "R" (str.at var11 510)))
(assert (= "=" (str.at var15 935)))
(assert (= "7" (str.at var32 262)))
(assert (= "(" (str.at var5 861)))
(assert (= "P" (str.at var48 167)))
(assert (= "Z" (str.at var58 850)))
(assert (= "0" (str.at var55 964)))
(assert (= "(" (str.at var57 161)))
(assert (= "}" (str.at var34 632)))
(assert (= "*" (str.at var54 251)))
(assert (= "." (str.at var17 505)))
(assert (= "%" (str.at var34 843)))
(assert (= "k" (str.at var13 359)))
(assert (= "V" (str.at var45 423)))
(assert (= "?" (str.at var0 908)))
(assert (= "*" (str.at var2 108)))
(assert (= "h" (str.at var9 504)))
(assert (= "P" (str.at var28 850)))
(assert (= "." (str.at var6 7)))
(assert (= "]" (str.at var13 658)))
(assert (= "6" (str.at var59 246)))
(assert (= "J" (str.at var14 64)))
(assert (= "x" (str.at var29 885)))
(assert (= "M" (str.at var37 375)))
(assert (= "R" (str.at var33 66)))
(assert (= "A" (str.at var3 840)))
(assert (= "S" (str.at var38 569)))
(assert (= "0" (str.at var14 512)))
(assert (= "u" (str.at var26 442)))
(assert (= "v" (str.at var60 350)))
(assert (= "`" (str.at var60 535)))
(assert (= "[" (str.at var58 799)))
(assert (= "t" (str.at var7 734)))
(assert (= "R" (str.at var18 297)))
(assert (= """" (str.at var30 0)))
(assert (= "1" (str.at var27 689)))
(assert (= "j" (str.at var4 941)))
(assert (= ">" (str.at var40 86)))
(assert (= "~" (str.at var31 316)))
(assert (= "r" (str.at var46 357)))
(assert (= "5" (str.at var52 176)))
(assert (= "[" (str.at var45 947)))
(check-sat)